sat
(
(define-fun J () String "")
(define-fun I () String "")
(define-fun K () String "")
(define-fun H () String "aaaaaaaaaaaaaaaaaaaababbb")
(define-fun G () String "")
(define-fun L () String "")
(define-fun N () String "")
(define-fun O () String "")
(define-fun M () String "")
(define-fun P () String "")
(define-fun Q () String "aaaaaabbbbaa")
)
